param set_len = 46;
param target_sum = 12232447225;
param values := [1] 399343925 [2] 129990582 [3] 434973206 [4] 986583271 [5] 37427310 [6] 405056543 [7] 884930286 [8] 982031034 [9] 705622569 [10] 394711337 [11] 974221593 [12] 863912100 [13] 1065557965 [14] 571980855 [15] 610931431 [16] 789630665 [17] 618856374 [18] 953121135 [19] 722382910 [20] 661669541 [21] 139873784 [22] 882323847 [23] 495803275 [24] 394376756 [25] 462317705 [26] 854595556 [27] 170717251 [28] 203490866 [29] 38162221 [30] 840890770 [31] 1019878532 [32] 269949575 [33] 126832467 [34] 277353241 [35] 1049746914 [36] 315143086 [37] 959017430 [38] 65531942 [39] 1071729791 [40] 906236612 [41] 1022553198 [42] 318701576 [43] 90677722 [44] 180153695 [45] 158984962 [46] 1065883866 ;
